11
0 16 64 28 59 1 79 5 50 93 87 
56 0 63 76 88 43 86 20 48 52 8 
5 93 0 70 14 8 36 91 12 6 84 
71 41 74 0 61 48 73 9 95 4 46 
13 88 30 7 0 64 96 96 98 70 62 
53 11 1 64 2 0 73 41 10 35 30 
15 61 31 66 98 90 0 95 72 16 68 
19 19 52 34 42 5 52 0 84 61 1 
6 8 25 67 12 48 32 2 0 65 79 
88 14 68 41 42 22 27 87 78 0 59 
12 26 28 65 47 82 15 41 49 6 0 
